c Line Graph - Bad case for Dinics
c 1024 vertices
p max 1024 2045
n 1 s
n 1024 t
a 1 1024 1
a 1 2 1024
a 2 1024 1
a 2 3 1024
a 3 1024 1
a 3 4 1024
a 4 1024 1
a 4 5 1024
a 5 1024 1
a 5 6 1024
a 6 1024 1
a 6 7 1024
a 7 1024 1
a 7 8 1024
a 8 1024 1
a 8 9 1024
a 9 1024 1
a 9 10 1024
a 10 1024 1
a 10 11 1024
a 11 1024 1
a 11 12 1024
a 12 1024 1
a 12 13 1024
a 13 1024 1
a 13 14 1024
a 14 1024 1
a 14 15 1024
a 15 1024 1
a 15 16 1024
a 16 1024 1
a 16 17 1024
a 17 1024 1
a 17 18 1024
a 18 1024 1
a 18 19 1024
a 19 1024 1
a 19 20 1024
a 20 1024 1
a 20 21 1024
a 21 1024 1
a 21 22 1024
a 22 1024 1
a 22 23 1024
a 23 1024 1
a 23 24 1024
a 24 1024 1
a 24 25 1024
a 25 1024 1
a 25 26 1024
a 26 1024 1
a 26 27 1024
a 27 1024 1
a 27 28 1024
a 28 1024 1
a 28 29 1024
a 29 1024 1
a 29 30 1024
a 30 1024 1
a 30 31 1024
a 31 1024 1
a 31 32 1024
a 32 1024 1
a 32 33 1024
a 33 1024 1
a 33 34 1024
a 34 1024 1
a 34 35 1024
a 35 1024 1
a 35 36 1024
a 36 1024 1
a 36 37 1024
a 37 1024 1
a 37 38 1024
a 38 1024 1
a 38 39 1024
a 39 1024 1
a 39 40 1024
a 40 1024 1
a 40 41 1024
a 41 1024 1
a 41 42 1024
a 42 1024 1
a 42 43 1024
a 43 1024 1
a 43 44 1024
a 44 1024 1
a 44 45 1024
a 45 1024 1
a 45 46 1024
a 46 1024 1
a 46 47 1024
a 47 1024 1
a 47 48 1024
a 48 1024 1
a 48 49 1024
a 49 1024 1
a 49 50 1024
a 50 1024 1
a 50 51 1024
a 51 1024 1
a 51 52 1024
a 52 1024 1
a 52 53 1024
a 53 1024 1
a 53 54 1024
a 54 1024 1
a 54 55 1024
a 55 1024 1
a 55 56 1024
a 56 1024 1
a 56 57 1024
a 57 1024 1
a 57 58 1024
a 58 1024 1
a 58 59 1024
a 59 1024 1
a 59 60 1024
a 60 1024 1
a 60 61 1024
a 61 1024 1
a 61 62 1024
a 62 1024 1
a 62 63 1024
a 63 1024 1
a 63 64 1024
a 64 1024 1
a 64 65 1024
a 65 1024 1
a 65 66 1024
a 66 1024 1
a 66 67 1024
a 67 1024 1
a 67 68 1024
a 68 1024 1
a 68 69 1024
a 69 1024 1
a 69 70 1024
a 70 1024 1
a 70 71 1024
a 71 1024 1
a 71 72 1024
a 72 1024 1
a 72 73 1024
a 73 1024 1
a 73 74 1024
a 74 1024 1
a 74 75 1024
a 75 1024 1
a 75 76 1024
a 76 1024 1
a 76 77 1024
a 77 1024 1
a 77 78 1024
a 78 1024 1
a 78 79 1024
a 79 1024 1
a 79 80 1024
a 80 1024 1
a 80 81 1024
a 81 1024 1
a 81 82 1024
a 82 1024 1
a 82 83 1024
a 83 1024 1
a 83 84 1024
a 84 1024 1
a 84 85 1024
a 85 1024 1
a 85 86 1024
a 86 1024 1
a 86 87 1024
a 87 1024 1
a 87 88 1024
a 88 1024 1
a 88 89 1024
a 89 1024 1
a 89 90 1024
a 90 1024 1
a 90 91 1024
a 91 1024 1
a 91 92 1024
a 92 1024 1
a 92 93 1024
a 93 1024 1
a 93 94 1024
a 94 1024 1
a 94 95 1024
a 95 1024 1
a 95 96 1024
a 96 1024 1
a 96 97 1024
a 97 1024 1
a 97 98 1024
a 98 1024 1
a 98 99 1024
a 99 1024 1
a 99 100 1024
a 100 1024 1
a 100 101 1024
a 101 1024 1
a 101 102 1024
a 102 1024 1
a 102 103 1024
a 103 1024 1
a 103 104 1024
a 104 1024 1
a 104 105 1024
a 105 1024 1
a 105 106 1024
a 106 1024 1
a 106 107 1024
a 107 1024 1
a 107 108 1024
a 108 1024 1
a 108 109 1024
a 109 1024 1
a 109 110 1024
a 110 1024 1
a 110 111 1024
a 111 1024 1
a 111 112 1024
a 112 1024 1
a 112 113 1024
a 113 1024 1
a 113 114 1024
a 114 1024 1
a 114 115 1024
a 115 1024 1
a 115 116 1024
a 116 1024 1
a 116 117 1024
a 117 1024 1
a 117 118 1024
a 118 1024 1
a 118 119 1024
a 119 1024 1
a 119 120 1024
a 120 1024 1
a 120 121 1024
a 121 1024 1
a 121 122 1024
a 122 1024 1
a 122 123 1024
a 123 1024 1
a 123 124 1024
a 124 1024 1
a 124 125 1024
a 125 1024 1
a 125 126 1024
a 126 1024 1
a 126 127 1024
a 127 1024 1
a 127 128 1024
a 128 1024 1
a 128 129 1024
a 129 1024 1
a 129 130 1024
a 130 1024 1
a 130 131 1024
a 131 1024 1
a 131 132 1024
a 132 1024 1
a 132 133 1024
a 133 1024 1
a 133 134 1024
a 134 1024 1
a 134 135 1024
a 135 1024 1
a 135 136 1024
a 136 1024 1
a 136 137 1024
a 137 1024 1
a 137 138 1024
a 138 1024 1
a 138 139 1024
a 139 1024 1
a 139 140 1024
a 140 1024 1
a 140 141 1024
a 141 1024 1
a 141 142 1024
a 142 1024 1
a 142 143 1024
a 143 1024 1
a 143 144 1024
a 144 1024 1
a 144 145 1024
a 145 1024 1
a 145 146 1024
a 146 1024 1
a 146 147 1024
a 147 1024 1
a 147 148 1024
a 148 1024 1
a 148 149 1024
a 149 1024 1
a 149 150 1024
a 150 1024 1
a 150 151 1024
a 151 1024 1
a 151 152 1024
a 152 1024 1
a 152 153 1024
a 153 1024 1
a 153 154 1024
a 154 1024 1
a 154 155 1024
a 155 1024 1
a 155 156 1024
a 156 1024 1
a 156 157 1024
a 157 1024 1
a 157 158 1024
a 158 1024 1
a 158 159 1024
a 159 1024 1
a 159 160 1024
a 160 1024 1
a 160 161 1024
a 161 1024 1
a 161 162 1024
a 162 1024 1
a 162 163 1024
a 163 1024 1
a 163 164 1024
a 164 1024 1
a 164 165 1024
a 165 1024 1
a 165 166 1024
a 166 1024 1
a 166 167 1024
a 167 1024 1
a 167 168 1024
a 168 1024 1
a 168 169 1024
a 169 1024 1
a 169 170 1024
a 170 1024 1
a 170 171 1024
a 171 1024 1
a 171 172 1024
a 172 1024 1
a 172 173 1024
a 173 1024 1
a 173 174 1024
a 174 1024 1
a 174 175 1024
a 175 1024 1
a 175 176 1024
a 176 1024 1
a 176 177 1024
a 177 1024 1
a 177 178 1024
a 178 1024 1
a 178 179 1024
a 179 1024 1
a 179 180 1024
a 180 1024 1
a 180 181 1024
a 181 1024 1
a 181 182 1024
a 182 1024 1
a 182 183 1024
a 183 1024 1
a 183 184 1024
a 184 1024 1
a 184 185 1024
a 185 1024 1
a 185 186 1024
a 186 1024 1
a 186 187 1024
a 187 1024 1
a 187 188 1024
a 188 1024 1
a 188 189 1024
a 189 1024 1
a 189 190 1024
a 190 1024 1
a 190 191 1024
a 191 1024 1
a 191 192 1024
a 192 1024 1
a 192 193 1024
a 193 1024 1
a 193 194 1024
a 194 1024 1
a 194 195 1024
a 195 1024 1
a 195 196 1024
a 196 1024 1
a 196 197 1024
a 197 1024 1
a 197 198 1024
a 198 1024 1
a 198 199 1024
a 199 1024 1
a 199 200 1024
a 200 1024 1
a 200 201 1024
a 201 1024 1
a 201 202 1024
a 202 1024 1
a 202 203 1024
a 203 1024 1
a 203 204 1024
a 204 1024 1
a 204 205 1024
a 205 1024 1
a 205 206 1024
a 206 1024 1
a 206 207 1024
a 207 1024 1
a 207 208 1024
a 208 1024 1
a 208 209 1024
a 209 1024 1
a 209 210 1024
a 210 1024 1
a 210 211 1024
a 211 1024 1
a 211 212 1024
a 212 1024 1
a 212 213 1024
a 213 1024 1
a 213 214 1024
a 214 1024 1
a 214 215 1024
a 215 1024 1
a 215 216 1024
a 216 1024 1
a 216 217 1024
a 217 1024 1
a 217 218 1024
a 218 1024 1
a 218 219 1024
a 219 1024 1
a 219 220 1024
a 220 1024 1
a 220 221 1024
a 221 1024 1
a 221 222 1024
a 222 1024 1
a 222 223 1024
a 223 1024 1
a 223 224 1024
a 224 1024 1
a 224 225 1024
a 225 1024 1
a 225 226 1024
a 226 1024 1
a 226 227 1024
a 227 1024 1
a 227 228 1024
a 228 1024 1
a 228 229 1024
a 229 1024 1
a 229 230 1024
a 230 1024 1
a 230 231 1024
a 231 1024 1
a 231 232 1024
a 232 1024 1
a 232 233 1024
a 233 1024 1
a 233 234 1024
a 234 1024 1
a 234 235 1024
a 235 1024 1
a 235 236 1024
a 236 1024 1
a 236 237 1024
a 237 1024 1
a 237 238 1024
a 238 1024 1
a 238 239 1024
a 239 1024 1
a 239 240 1024
a 240 1024 1
a 240 241 1024
a 241 1024 1
a 241 242 1024
a 242 1024 1
a 242 243 1024
a 243 1024 1
a 243 244 1024
a 244 1024 1
a 244 245 1024
a 245 1024 1
a 245 246 1024
a 246 1024 1
a 246 247 1024
a 247 1024 1
a 247 248 1024
a 248 1024 1
a 248 249 1024
a 249 1024 1
a 249 250 1024
a 250 1024 1
a 250 251 1024
a 251 1024 1
a 251 252 1024
a 252 1024 1
a 252 253 1024
a 253 1024 1
a 253 254 1024
a 254 1024 1
a 254 255 1024
a 255 1024 1
a 255 256 1024
a 256 1024 1
a 256 257 1024
a 257 1024 1
a 257 258 1024
a 258 1024 1
a 258 259 1024
a 259 1024 1
a 259 260 1024
a 260 1024 1
a 260 261 1024
a 261 1024 1
a 261 262 1024
a 262 1024 1
a 262 263 1024
a 263 1024 1
a 263 264 1024
a 264 1024 1
a 264 265 1024
a 265 1024 1
a 265 266 1024
a 266 1024 1
a 266 267 1024
a 267 1024 1
a 267 268 1024
a 268 1024 1
a 268 269 1024
a 269 1024 1
a 269 270 1024
a 270 1024 1
a 270 271 1024
a 271 1024 1
a 271 272 1024
a 272 1024 1
a 272 273 1024
a 273 1024 1
a 273 274 1024
a 274 1024 1
a 274 275 1024
a 275 1024 1
a 275 276 1024
a 276 1024 1
a 276 277 1024
a 277 1024 1
a 277 278 1024
a 278 1024 1
a 278 279 1024
a 279 1024 1
a 279 280 1024
a 280 1024 1
a 280 281 1024
a 281 1024 1
a 281 282 1024
a 282 1024 1
a 282 283 1024
a 283 1024 1
a 283 284 1024
a 284 1024 1
a 284 285 1024
a 285 1024 1
a 285 286 1024
a 286 1024 1
a 286 287 1024
a 287 1024 1
a 287 288 1024
a 288 1024 1
a 288 289 1024
a 289 1024 1
a 289 290 1024
a 290 1024 1
a 290 291 1024
a 291 1024 1
a 291 292 1024
a 292 1024 1
a 292 293 1024
a 293 1024 1
a 293 294 1024
a 294 1024 1
a 294 295 1024
a 295 1024 1
a 295 296 1024
a 296 1024 1
a 296 297 1024
a 297 1024 1
a 297 298 1024
a 298 1024 1
a 298 299 1024
a 299 1024 1
a 299 300 1024
a 300 1024 1
a 300 301 1024
a 301 1024 1
a 301 302 1024
a 302 1024 1
a 302 303 1024
a 303 1024 1
a 303 304 1024
a 304 1024 1
a 304 305 1024
a 305 1024 1
a 305 306 1024
a 306 1024 1
a 306 307 1024
a 307 1024 1
a 307 308 1024
a 308 1024 1
a 308 309 1024
a 309 1024 1
a 309 310 1024
a 310 1024 1
a 310 311 1024
a 311 1024 1
a 311 312 1024
a 312 1024 1
a 312 313 1024
a 313 1024 1
a 313 314 1024
a 314 1024 1
a 314 315 1024
a 315 1024 1
a 315 316 1024
a 316 1024 1
a 316 317 1024
a 317 1024 1
a 317 318 1024
a 318 1024 1
a 318 319 1024
a 319 1024 1
a 319 320 1024
a 320 1024 1
a 320 321 1024
a 321 1024 1
a 321 322 1024
a 322 1024 1
a 322 323 1024
a 323 1024 1
a 323 324 1024
a 324 1024 1
a 324 325 1024
a 325 1024 1
a 325 326 1024
a 326 1024 1
a 326 327 1024
a 327 1024 1
a 327 328 1024
a 328 1024 1
a 328 329 1024
a 329 1024 1
a 329 330 1024
a 330 1024 1
a 330 331 1024
a 331 1024 1
a 331 332 1024
a 332 1024 1
a 332 333 1024
a 333 1024 1
a 333 334 1024
a 334 1024 1
a 334 335 1024
a 335 1024 1
a 335 336 1024
a 336 1024 1
a 336 337 1024
a 337 1024 1
a 337 338 1024
a 338 1024 1
a 338 339 1024
a 339 1024 1
a 339 340 1024
a 340 1024 1
a 340 341 1024
a 341 1024 1
a 341 342 1024
a 342 1024 1
a 342 343 1024
a 343 1024 1
a 343 344 1024
a 344 1024 1
a 344 345 1024
a 345 1024 1
a 345 346 1024
a 346 1024 1
a 346 347 1024
a 347 1024 1
a 347 348 1024
a 348 1024 1
a 348 349 1024
a 349 1024 1
a 349 350 1024
a 350 1024 1
a 350 351 1024
a 351 1024 1
a 351 352 1024
a 352 1024 1
a 352 353 1024
a 353 1024 1
a 353 354 1024
a 354 1024 1
a 354 355 1024
a 355 1024 1
a 355 356 1024
a 356 1024 1
a 356 357 1024
a 357 1024 1
a 357 358 1024
a 358 1024 1
a 358 359 1024
a 359 1024 1
a 359 360 1024
a 360 1024 1
a 360 361 1024
a 361 1024 1
a 361 362 1024
a 362 1024 1
a 362 363 1024
a 363 1024 1
a 363 364 1024
a 364 1024 1
a 364 365 1024
a 365 1024 1
a 365 366 1024
a 366 1024 1
a 366 367 1024
a 367 1024 1
a 367 368 1024
a 368 1024 1
a 368 369 1024
a 369 1024 1
a 369 370 1024
a 370 1024 1
a 370 371 1024
a 371 1024 1
a 371 372 1024
a 372 1024 1
a 372 373 1024
a 373 1024 1
a 373 374 1024
a 374 1024 1
a 374 375 1024
a 375 1024 1
a 375 376 1024
a 376 1024 1
a 376 377 1024
a 377 1024 1
a 377 378 1024
a 378 1024 1
a 378 379 1024
a 379 1024 1
a 379 380 1024
a 380 1024 1
a 380 381 1024
a 381 1024 1
a 381 382 1024
a 382 1024 1
a 382 383 1024
a 383 1024 1
a 383 384 1024
a 384 1024 1
a 384 385 1024
a 385 1024 1
a 385 386 1024
a 386 1024 1
a 386 387 1024
a 387 1024 1
a 387 388 1024
a 388 1024 1
a 388 389 1024
a 389 1024 1
a 389 390 1024
a 390 1024 1
a 390 391 1024
a 391 1024 1
a 391 392 1024
a 392 1024 1
a 392 393 1024
a 393 1024 1
a 393 394 1024
a 394 1024 1
a 394 395 1024
a 395 1024 1
a 395 396 1024
a 396 1024 1
a 396 397 1024
a 397 1024 1
a 397 398 1024
a 398 1024 1
a 398 399 1024
a 399 1024 1
a 399 400 1024
a 400 1024 1
a 400 401 1024
a 401 1024 1
a 401 402 1024
a 402 1024 1
a 402 403 1024
a 403 1024 1
a 403 404 1024
a 404 1024 1
a 404 405 1024
a 405 1024 1
a 405 406 1024
a 406 1024 1
a 406 407 1024
a 407 1024 1
a 407 408 1024
a 408 1024 1
a 408 409 1024
a 409 1024 1
a 409 410 1024
a 410 1024 1
a 410 411 1024
a 411 1024 1
a 411 412 1024
a 412 1024 1
a 412 413 1024
a 413 1024 1
a 413 414 1024
a 414 1024 1
a 414 415 1024
a 415 1024 1
a 415 416 1024
a 416 1024 1
a 416 417 1024
a 417 1024 1
a 417 418 1024
a 418 1024 1
a 418 419 1024
a 419 1024 1
a 419 420 1024
a 420 1024 1
a 420 421 1024
a 421 1024 1
a 421 422 1024
a 422 1024 1
a 422 423 1024
a 423 1024 1
a 423 424 1024
a 424 1024 1
a 424 425 1024
a 425 1024 1
a 425 426 1024
a 426 1024 1
a 426 427 1024
a 427 1024 1
a 427 428 1024
a 428 1024 1
a 428 429 1024
a 429 1024 1
a 429 430 1024
a 430 1024 1
a 430 431 1024
a 431 1024 1
a 431 432 1024
a 432 1024 1
a 432 433 1024
a 433 1024 1
a 433 434 1024
a 434 1024 1
a 434 435 1024
a 435 1024 1
a 435 436 1024
a 436 1024 1
a 436 437 1024
a 437 1024 1
a 437 438 1024
a 438 1024 1
a 438 439 1024
a 439 1024 1
a 439 440 1024
a 440 1024 1
a 440 441 1024
a 441 1024 1
a 441 442 1024
a 442 1024 1
a 442 443 1024
a 443 1024 1
a 443 444 1024
a 444 1024 1
a 444 445 1024
a 445 1024 1
a 445 446 1024
a 446 1024 1
a 446 447 1024
a 447 1024 1
a 447 448 1024
a 448 1024 1
a 448 449 1024
a 449 1024 1
a 449 450 1024
a 450 1024 1
a 450 451 1024
a 451 1024 1
a 451 452 1024
a 452 1024 1
a 452 453 1024
a 453 1024 1
a 453 454 1024
a 454 1024 1
a 454 455 1024
a 455 1024 1
a 455 456 1024
a 456 1024 1
a 456 457 1024
a 457 1024 1
a 457 458 1024
a 458 1024 1
a 458 459 1024
a 459 1024 1
a 459 460 1024
a 460 1024 1
a 460 461 1024
a 461 1024 1
a 461 462 1024
a 462 1024 1
a 462 463 1024
a 463 1024 1
a 463 464 1024
a 464 1024 1
a 464 465 1024
a 465 1024 1
a 465 466 1024
a 466 1024 1
a 466 467 1024
a 467 1024 1
a 467 468 1024
a 468 1024 1
a 468 469 1024
a 469 1024 1
a 469 470 1024
a 470 1024 1
a 470 471 1024
a 471 1024 1
a 471 472 1024
a 472 1024 1
a 472 473 1024
a 473 1024 1
a 473 474 1024
a 474 1024 1
a 474 475 1024
a 475 1024 1
a 475 476 1024
a 476 1024 1
a 476 477 1024
a 477 1024 1
a 477 478 1024
a 478 1024 1
a 478 479 1024
a 479 1024 1
a 479 480 1024
a 480 1024 1
a 480 481 1024
a 481 1024 1
a 481 482 1024
a 482 1024 1
a 482 483 1024
a 483 1024 1
a 483 484 1024
a 484 1024 1
a 484 485 1024
a 485 1024 1
a 485 486 1024
a 486 1024 1
a 486 487 1024
a 487 1024 1
a 487 488 1024
a 488 1024 1
a 488 489 1024
a 489 1024 1
a 489 490 1024
a 490 1024 1
a 490 491 1024
a 491 1024 1
a 491 492 1024
a 492 1024 1
a 492 493 1024
a 493 1024 1
a 493 494 1024
a 494 1024 1
a 494 495 1024
a 495 1024 1
a 495 496 1024
a 496 1024 1
a 496 497 1024
a 497 1024 1
a 497 498 1024
a 498 1024 1
a 498 499 1024
a 499 1024 1
a 499 500 1024
a 500 1024 1
a 500 501 1024
a 501 1024 1
a 501 502 1024
a 502 1024 1
a 502 503 1024
a 503 1024 1
a 503 504 1024
a 504 1024 1
a 504 505 1024
a 505 1024 1
a 505 506 1024
a 506 1024 1
a 506 507 1024
a 507 1024 1
a 507 508 1024
a 508 1024 1
a 508 509 1024
a 509 1024 1
a 509 510 1024
a 510 1024 1
a 510 511 1024
a 511 1024 1
a 511 512 1024
a 512 1024 1
a 512 513 1024
a 513 1024 1
a 513 514 1024
a 514 1024 1
a 514 515 1024
a 515 1024 1
a 515 516 1024
a 516 1024 1
a 516 517 1024
a 517 1024 1
a 517 518 1024
a 518 1024 1
a 518 519 1024
a 519 1024 1
a 519 520 1024
a 520 1024 1
a 520 521 1024
a 521 1024 1
a 521 522 1024
a 522 1024 1
a 522 523 1024
a 523 1024 1
a 523 524 1024
a 524 1024 1
a 524 525 1024
a 525 1024 1
a 525 526 1024
a 526 1024 1
a 526 527 1024
a 527 1024 1
a 527 528 1024
a 528 1024 1
a 528 529 1024
a 529 1024 1
a 529 530 1024
a 530 1024 1
a 530 531 1024
a 531 1024 1
a 531 532 1024
a 532 1024 1
a 532 533 1024
a 533 1024 1
a 533 534 1024
a 534 1024 1
a 534 535 1024
a 535 1024 1
a 535 536 1024
a 536 1024 1
a 536 537 1024
a 537 1024 1
a 537 538 1024
a 538 1024 1
a 538 539 1024
a 539 1024 1
a 539 540 1024
a 540 1024 1
a 540 541 1024
a 541 1024 1
a 541 542 1024
a 542 1024 1
a 542 543 1024
a 543 1024 1
a 543 544 1024
a 544 1024 1
a 544 545 1024
a 545 1024 1
a 545 546 1024
a 546 1024 1
a 546 547 1024
a 547 1024 1
a 547 548 1024
a 548 1024 1
a 548 549 1024
a 549 1024 1
a 549 550 1024
a 550 1024 1
a 550 551 1024
a 551 1024 1
a 551 552 1024
a 552 1024 1
a 552 553 1024
a 553 1024 1
a 553 554 1024
a 554 1024 1
a 554 555 1024
a 555 1024 1
a 555 556 1024
a 556 1024 1
a 556 557 1024
a 557 1024 1
a 557 558 1024
a 558 1024 1
a 558 559 1024
a 559 1024 1
a 559 560 1024
a 560 1024 1
a 560 561 1024
a 561 1024 1
a 561 562 1024
a 562 1024 1
a 562 563 1024
a 563 1024 1
a 563 564 1024
a 564 1024 1
a 564 565 1024
a 565 1024 1
a 565 566 1024
a 566 1024 1
a 566 567 1024
a 567 1024 1
a 567 568 1024
a 568 1024 1
a 568 569 1024
a 569 1024 1
a 569 570 1024
a 570 1024 1
a 570 571 1024
a 571 1024 1
a 571 572 1024
a 572 1024 1
a 572 573 1024
a 573 1024 1
a 573 574 1024
a 574 1024 1
a 574 575 1024
a 575 1024 1
a 575 576 1024
a 576 1024 1
a 576 577 1024
a 577 1024 1
a 577 578 1024
a 578 1024 1
a 578 579 1024
a 579 1024 1
a 579 580 1024
a 580 1024 1
a 580 581 1024
a 581 1024 1
a 581 582 1024
a 582 1024 1
a 582 583 1024
a 583 1024 1
a 583 584 1024
a 584 1024 1
a 584 585 1024
a 585 1024 1
a 585 586 1024
a 586 1024 1
a 586 587 1024
a 587 1024 1
a 587 588 1024
a 588 1024 1
a 588 589 1024
a 589 1024 1
a 589 590 1024
a 590 1024 1
a 590 591 1024
a 591 1024 1
a 591 592 1024
a 592 1024 1
a 592 593 1024
a 593 1024 1
a 593 594 1024
a 594 1024 1
a 594 595 1024
a 595 1024 1
a 595 596 1024
a 596 1024 1
a 596 597 1024
a 597 1024 1
a 597 598 1024
a 598 1024 1
a 598 599 1024
a 599 1024 1
a 599 600 1024
a 600 1024 1
a 600 601 1024
a 601 1024 1
a 601 602 1024
a 602 1024 1
a 602 603 1024
a 603 1024 1
a 603 604 1024
a 604 1024 1
a 604 605 1024
a 605 1024 1
a 605 606 1024
a 606 1024 1
a 606 607 1024
a 607 1024 1
a 607 608 1024
a 608 1024 1
a 608 609 1024
a 609 1024 1
a 609 610 1024
a 610 1024 1
a 610 611 1024
a 611 1024 1
a 611 612 1024
a 612 1024 1
a 612 613 1024
a 613 1024 1
a 613 614 1024
a 614 1024 1
a 614 615 1024
a 615 1024 1
a 615 616 1024
a 616 1024 1
a 616 617 1024
a 617 1024 1
a 617 618 1024
a 618 1024 1
a 618 619 1024
a 619 1024 1
a 619 620 1024
a 620 1024 1
a 620 621 1024
a 621 1024 1
a 621 622 1024
a 622 1024 1
a 622 623 1024
a 623 1024 1
a 623 624 1024
a 624 1024 1
a 624 625 1024
a 625 1024 1
a 625 626 1024
a 626 1024 1
a 626 627 1024
a 627 1024 1
a 627 628 1024
a 628 1024 1
a 628 629 1024
a 629 1024 1
a 629 630 1024
a 630 1024 1
a 630 631 1024
a 631 1024 1
a 631 632 1024
a 632 1024 1
a 632 633 1024
a 633 1024 1
a 633 634 1024
a 634 1024 1
a 634 635 1024
a 635 1024 1
a 635 636 1024
a 636 1024 1
a 636 637 1024
a 637 1024 1
a 637 638 1024
a 638 1024 1
a 638 639 1024
a 639 1024 1
a 639 640 1024
a 640 1024 1
a 640 641 1024
a 641 1024 1
a 641 642 1024
a 642 1024 1
a 642 643 1024
a 643 1024 1
a 643 644 1024
a 644 1024 1
a 644 645 1024
a 645 1024 1
a 645 646 1024
a 646 1024 1
a 646 647 1024
a 647 1024 1
a 647 648 1024
a 648 1024 1
a 648 649 1024
a 649 1024 1
a 649 650 1024
a 650 1024 1
a 650 651 1024
a 651 1024 1
a 651 652 1024
a 652 1024 1
a 652 653 1024
a 653 1024 1
a 653 654 1024
a 654 1024 1
a 654 655 1024
a 655 1024 1
a 655 656 1024
a 656 1024 1
a 656 657 1024
a 657 1024 1
a 657 658 1024
a 658 1024 1
a 658 659 1024
a 659 1024 1
a 659 660 1024
a 660 1024 1
a 660 661 1024
a 661 1024 1
a 661 662 1024
a 662 1024 1
a 662 663 1024
a 663 1024 1
a 663 664 1024
a 664 1024 1
a 664 665 1024
a 665 1024 1
a 665 666 1024
a 666 1024 1
a 666 667 1024
a 667 1024 1
a 667 668 1024
a 668 1024 1
a 668 669 1024
a 669 1024 1
a 669 670 1024
a 670 1024 1
a 670 671 1024
a 671 1024 1
a 671 672 1024
a 672 1024 1
a 672 673 1024
a 673 1024 1
a 673 674 1024
a 674 1024 1
a 674 675 1024
a 675 1024 1
a 675 676 1024
a 676 1024 1
a 676 677 1024
a 677 1024 1
a 677 678 1024
a 678 1024 1
a 678 679 1024
a 679 1024 1
a 679 680 1024
a 680 1024 1
a 680 681 1024
a 681 1024 1
a 681 682 1024
a 682 1024 1
a 682 683 1024
a 683 1024 1
a 683 684 1024
a 684 1024 1
a 684 685 1024
a 685 1024 1
a 685 686 1024
a 686 1024 1
a 686 687 1024
a 687 1024 1
a 687 688 1024
a 688 1024 1
a 688 689 1024
a 689 1024 1
a 689 690 1024
a 690 1024 1
a 690 691 1024
a 691 1024 1
a 691 692 1024
a 692 1024 1
a 692 693 1024
a 693 1024 1
a 693 694 1024
a 694 1024 1
a 694 695 1024
a 695 1024 1
a 695 696 1024
a 696 1024 1
a 696 697 1024
a 697 1024 1
a 697 698 1024
a 698 1024 1
a 698 699 1024
a 699 1024 1
a 699 700 1024
a 700 1024 1
a 700 701 1024
a 701 1024 1
a 701 702 1024
a 702 1024 1
a 702 703 1024
a 703 1024 1
a 703 704 1024
a 704 1024 1
a 704 705 1024
a 705 1024 1
a 705 706 1024
a 706 1024 1
a 706 707 1024
a 707 1024 1
a 707 708 1024
a 708 1024 1
a 708 709 1024
a 709 1024 1
a 709 710 1024
a 710 1024 1
a 710 711 1024
a 711 1024 1
a 711 712 1024
a 712 1024 1
a 712 713 1024
a 713 1024 1
a 713 714 1024
a 714 1024 1
a 714 715 1024
a 715 1024 1
a 715 716 1024
a 716 1024 1
a 716 717 1024
a 717 1024 1
a 717 718 1024
a 718 1024 1
a 718 719 1024
a 719 1024 1
a 719 720 1024
a 720 1024 1
a 720 721 1024
a 721 1024 1
a 721 722 1024
a 722 1024 1
a 722 723 1024
a 723 1024 1
a 723 724 1024
a 724 1024 1
a 724 725 1024
a 725 1024 1
a 725 726 1024
a 726 1024 1
a 726 727 1024
a 727 1024 1
a 727 728 1024
a 728 1024 1
a 728 729 1024
a 729 1024 1
a 729 730 1024
a 730 1024 1
a 730 731 1024
a 731 1024 1
a 731 732 1024
a 732 1024 1
a 732 733 1024
a 733 1024 1
a 733 734 1024
a 734 1024 1
a 734 735 1024
a 735 1024 1
a 735 736 1024
a 736 1024 1
a 736 737 1024
a 737 1024 1
a 737 738 1024
a 738 1024 1
a 738 739 1024
a 739 1024 1
a 739 740 1024
a 740 1024 1
a 740 741 1024
a 741 1024 1
a 741 742 1024
a 742 1024 1
a 742 743 1024
a 743 1024 1
a 743 744 1024
a 744 1024 1
a 744 745 1024
a 745 1024 1
a 745 746 1024
a 746 1024 1
a 746 747 1024
a 747 1024 1
a 747 748 1024
a 748 1024 1
a 748 749 1024
a 749 1024 1
a 749 750 1024
a 750 1024 1
a 750 751 1024
a 751 1024 1
a 751 752 1024
a 752 1024 1
a 752 753 1024
a 753 1024 1
a 753 754 1024
a 754 1024 1
a 754 755 1024
a 755 1024 1
a 755 756 1024
a 756 1024 1
a 756 757 1024
a 757 1024 1
a 757 758 1024
a 758 1024 1
a 758 759 1024
a 759 1024 1
a 759 760 1024
a 760 1024 1
a 760 761 1024
a 761 1024 1
a 761 762 1024
a 762 1024 1
a 762 763 1024
a 763 1024 1
a 763 764 1024
a 764 1024 1
a 764 765 1024
a 765 1024 1
a 765 766 1024
a 766 1024 1
a 766 767 1024
a 767 1024 1
a 767 768 1024
a 768 1024 1
a 768 769 1024
a 769 1024 1
a 769 770 1024
a 770 1024 1
a 770 771 1024
a 771 1024 1
a 771 772 1024
a 772 1024 1
a 772 773 1024
a 773 1024 1
a 773 774 1024
a 774 1024 1
a 774 775 1024
a 775 1024 1
a 775 776 1024
a 776 1024 1
a 776 777 1024
a 777 1024 1
a 777 778 1024
a 778 1024 1
a 778 779 1024
a 779 1024 1
a 779 780 1024
a 780 1024 1
a 780 781 1024
a 781 1024 1
a 781 782 1024
a 782 1024 1
a 782 783 1024
a 783 1024 1
a 783 784 1024
a 784 1024 1
a 784 785 1024
a 785 1024 1
a 785 786 1024
a 786 1024 1
a 786 787 1024
a 787 1024 1
a 787 788 1024
a 788 1024 1
a 788 789 1024
a 789 1024 1
a 789 790 1024
a 790 1024 1
a 790 791 1024
a 791 1024 1
a 791 792 1024
a 792 1024 1
a 792 793 1024
a 793 1024 1
a 793 794 1024
a 794 1024 1
a 794 795 1024
a 795 1024 1
a 795 796 1024
a 796 1024 1
a 796 797 1024
a 797 1024 1
a 797 798 1024
a 798 1024 1
a 798 799 1024
a 799 1024 1
a 799 800 1024
a 800 1024 1
a 800 801 1024
a 801 1024 1
a 801 802 1024
a 802 1024 1
a 802 803 1024
a 803 1024 1
a 803 804 1024
a 804 1024 1
a 804 805 1024
a 805 1024 1
a 805 806 1024
a 806 1024 1
a 806 807 1024
a 807 1024 1
a 807 808 1024
a 808 1024 1
a 808 809 1024
a 809 1024 1
a 809 810 1024
a 810 1024 1
a 810 811 1024
a 811 1024 1
a 811 812 1024
a 812 1024 1
a 812 813 1024
a 813 1024 1
a 813 814 1024
a 814 1024 1
a 814 815 1024
a 815 1024 1
a 815 816 1024
a 816 1024 1
a 816 817 1024
a 817 1024 1
a 817 818 1024
a 818 1024 1
a 818 819 1024
a 819 1024 1
a 819 820 1024
a 820 1024 1
a 820 821 1024
a 821 1024 1
a 821 822 1024
a 822 1024 1
a 822 823 1024
a 823 1024 1
a 823 824 1024
a 824 1024 1
a 824 825 1024
a 825 1024 1
a 825 826 1024
a 826 1024 1
a 826 827 1024
a 827 1024 1
a 827 828 1024
a 828 1024 1
a 828 829 1024
a 829 1024 1
a 829 830 1024
a 830 1024 1
a 830 831 1024
a 831 1024 1
a 831 832 1024
a 832 1024 1
a 832 833 1024
a 833 1024 1
a 833 834 1024
a 834 1024 1
a 834 835 1024
a 835 1024 1
a 835 836 1024
a 836 1024 1
a 836 837 1024
a 837 1024 1
a 837 838 1024
a 838 1024 1
a 838 839 1024
a 839 1024 1
a 839 840 1024
a 840 1024 1
a 840 841 1024
a 841 1024 1
a 841 842 1024
a 842 1024 1
a 842 843 1024
a 843 1024 1
a 843 844 1024
a 844 1024 1
a 844 845 1024
a 845 1024 1
a 845 846 1024
a 846 1024 1
a 846 847 1024
a 847 1024 1
a 847 848 1024
a 848 1024 1
a 848 849 1024
a 849 1024 1
a 849 850 1024
a 850 1024 1
a 850 851 1024
a 851 1024 1
a 851 852 1024
a 852 1024 1
a 852 853 1024
a 853 1024 1
a 853 854 1024
a 854 1024 1
a 854 855 1024
a 855 1024 1
a 855 856 1024
a 856 1024 1
a 856 857 1024
a 857 1024 1
a 857 858 1024
a 858 1024 1
a 858 859 1024
a 859 1024 1
a 859 860 1024
a 860 1024 1
a 860 861 1024
a 861 1024 1
a 861 862 1024
a 862 1024 1
a 862 863 1024
a 863 1024 1
a 863 864 1024
a 864 1024 1
a 864 865 1024
a 865 1024 1
a 865 866 1024
a 866 1024 1
a 866 867 1024
a 867 1024 1
a 867 868 1024
a 868 1024 1
a 868 869 1024
a 869 1024 1
a 869 870 1024
a 870 1024 1
a 870 871 1024
a 871 1024 1
a 871 872 1024
a 872 1024 1
a 872 873 1024
a 873 1024 1
a 873 874 1024
a 874 1024 1
a 874 875 1024
a 875 1024 1
a 875 876 1024
a 876 1024 1
a 876 877 1024
a 877 1024 1
a 877 878 1024
a 878 1024 1
a 878 879 1024
a 879 1024 1
a 879 880 1024
a 880 1024 1
a 880 881 1024
a 881 1024 1
a 881 882 1024
a 882 1024 1
a 882 883 1024
a 883 1024 1
a 883 884 1024
a 884 1024 1
a 884 885 1024
a 885 1024 1
a 885 886 1024
a 886 1024 1
a 886 887 1024
a 887 1024 1
a 887 888 1024
a 888 1024 1
a 888 889 1024
a 889 1024 1
a 889 890 1024
a 890 1024 1
a 890 891 1024
a 891 1024 1
a 891 892 1024
a 892 1024 1
a 892 893 1024
a 893 1024 1
a 893 894 1024
a 894 1024 1
a 894 895 1024
a 895 1024 1
a 895 896 1024
a 896 1024 1
a 896 897 1024
a 897 1024 1
a 897 898 1024
a 898 1024 1
a 898 899 1024
a 899 1024 1
a 899 900 1024
a 900 1024 1
a 900 901 1024
a 901 1024 1
a 901 902 1024
a 902 1024 1
a 902 903 1024
a 903 1024 1
a 903 904 1024
a 904 1024 1
a 904 905 1024
a 905 1024 1
a 905 906 1024
a 906 1024 1
a 906 907 1024
a 907 1024 1
a 907 908 1024
a 908 1024 1
a 908 909 1024
a 909 1024 1
a 909 910 1024
a 910 1024 1
a 910 911 1024
a 911 1024 1
a 911 912 1024
a 912 1024 1
a 912 913 1024
a 913 1024 1
a 913 914 1024
a 914 1024 1
a 914 915 1024
a 915 1024 1
a 915 916 1024
a 916 1024 1
a 916 917 1024
a 917 1024 1
a 917 918 1024
a 918 1024 1
a 918 919 1024
a 919 1024 1
a 919 920 1024
a 920 1024 1
a 920 921 1024
a 921 1024 1
a 921 922 1024
a 922 1024 1
a 922 923 1024
a 923 1024 1
a 923 924 1024
a 924 1024 1
a 924 925 1024
a 925 1024 1
a 925 926 1024
a 926 1024 1
a 926 927 1024
a 927 1024 1
a 927 928 1024
a 928 1024 1
a 928 929 1024
a 929 1024 1
a 929 930 1024
a 930 1024 1
a 930 931 1024
a 931 1024 1
a 931 932 1024
a 932 1024 1
a 932 933 1024
a 933 1024 1
a 933 934 1024
a 934 1024 1
a 934 935 1024
a 935 1024 1
a 935 936 1024
a 936 1024 1
a 936 937 1024
a 937 1024 1
a 937 938 1024
a 938 1024 1
a 938 939 1024
a 939 1024 1
a 939 940 1024
a 940 1024 1
a 940 941 1024
a 941 1024 1
a 941 942 1024
a 942 1024 1
a 942 943 1024
a 943 1024 1
a 943 944 1024
a 944 1024 1
a 944 945 1024
a 945 1024 1
a 945 946 1024
a 946 1024 1
a 946 947 1024
a 947 1024 1
a 947 948 1024
a 948 1024 1
a 948 949 1024
a 949 1024 1
a 949 950 1024
a 950 1024 1
a 950 951 1024
a 951 1024 1
a 951 952 1024
a 952 1024 1
a 952 953 1024
a 953 1024 1
a 953 954 1024
a 954 1024 1
a 954 955 1024
a 955 1024 1
a 955 956 1024
a 956 1024 1
a 956 957 1024
a 957 1024 1
a 957 958 1024
a 958 1024 1
a 958 959 1024
a 959 1024 1
a 959 960 1024
a 960 1024 1
a 960 961 1024
a 961 1024 1
a 961 962 1024
a 962 1024 1
a 962 963 1024
a 963 1024 1
a 963 964 1024
a 964 1024 1
a 964 965 1024
a 965 1024 1
a 965 966 1024
a 966 1024 1
a 966 967 1024
a 967 1024 1
a 967 968 1024
a 968 1024 1
a 968 969 1024
a 969 1024 1
a 969 970 1024
a 970 1024 1
a 970 971 1024
a 971 1024 1
a 971 972 1024
a 972 1024 1
a 972 973 1024
a 973 1024 1
a 973 974 1024
a 974 1024 1
a 974 975 1024
a 975 1024 1
a 975 976 1024
a 976 1024 1
a 976 977 1024
a 977 1024 1
a 977 978 1024
a 978 1024 1
a 978 979 1024
a 979 1024 1
a 979 980 1024
a 980 1024 1
a 980 981 1024
a 981 1024 1
a 981 982 1024
a 982 1024 1
a 982 983 1024
a 983 1024 1
a 983 984 1024
a 984 1024 1
a 984 985 1024
a 985 1024 1
a 985 986 1024
a 986 1024 1
a 986 987 1024
a 987 1024 1
a 987 988 1024
a 988 1024 1
a 988 989 1024
a 989 1024 1
a 989 990 1024
a 990 1024 1
a 990 991 1024
a 991 1024 1
a 991 992 1024
a 992 1024 1
a 992 993 1024
a 993 1024 1
a 993 994 1024
a 994 1024 1
a 994 995 1024
a 995 1024 1
a 995 996 1024
a 996 1024 1
a 996 997 1024
a 997 1024 1
a 997 998 1024
a 998 1024 1
a 998 999 1024
a 999 1024 1
a 999 1000 1024
a 1000 1024 1
a 1000 1001 1024
a 1001 1024 1
a 1001 1002 1024
a 1002 1024 1
a 1002 1003 1024
a 1003 1024 1
a 1003 1004 1024
a 1004 1024 1
a 1004 1005 1024
a 1005 1024 1
a 1005 1006 1024
a 1006 1024 1
a 1006 1007 1024
a 1007 1024 1
a 1007 1008 1024
a 1008 1024 1
a 1008 1009 1024
a 1009 1024 1
a 1009 1010 1024
a 1010 1024 1
a 1010 1011 1024
a 1011 1024 1
a 1011 1012 1024
a 1012 1024 1
a 1012 1013 1024
a 1013 1024 1
a 1013 1014 1024
a 1014 1024 1
a 1014 1015 1024
a 1015 1024 1
a 1015 1016 1024
a 1016 1024 1
a 1016 1017 1024
a 1017 1024 1
a 1017 1018 1024
a 1018 1024 1
a 1018 1019 1024
a 1019 1024 1
a 1019 1020 1024
a 1020 1024 1
a 1020 1021 1024
a 1021 1024 1
a 1021 1022 1024
a 1022 1024 1
a 1022 1023 1024
a 1023 1024 1024
